NAME : xqf131_solution.tour
TYPE : TOUR
DIMENSION : 132
COMMENT : Tour length: 926.5327
COMMENT : Time elapsed: 481.95 [s]
TOUR_SECTION
0
1
2
31
48
47
46
24
16
15
14
13
11
4
12
17
73
76
88
92
106
112
107
108
93
86
77
74
63
53
30
29
27
26
25
18
28
19
6
7
8
20
33
55
56
70
75
78
79
85
110
102
103
96
90
89
84
83
82
87
91
98
101
105
125
126
114
109
95
94
71
72
60
59
58
69
68
97
111
122
129
130
127
128
121
116
119
115
118
124
123
120
117
113
104
100
99
81
80
67
52
44
45
54
49
50
51
34
35
21
37
36
38
22
9
3
10
23
43
42
41
40
39
57
62
66
65
64
61
32
5
0
-1
EOF
